SECTION Graph 
Nodes 766
Edges 1535
E 1 553 21
E 1 574 7
E 2 3 14
E 2 554 21
E 3 4 1
E 3 575 21
E 4 576 21
E 5 303 4
E 5 540 15
E 5 557 6
E 6 305 12
E 6 589 6
E 7 8 1
E 7 546 7
E 7 553 2
E 8 9 14
E 8 554 2
E 9 10 1
E 9 575 2
E 10 576 2
E 11 12 1
E 11 15 21
E 11 50 7
E 12 13 14
E 12 16 21
E 13 14 1
E 13 17 21
E 14 18 21
E 15 16 1
E 15 54 7
E 16 17 14
E 17 18 1
E 19 20 1
E 19 66 7
E 20 21 14
E 21 22 1
E 23 24 1
E 23 548 7
E 23 550 2
E 24 25 14
E 24 552 2
E 25 26 1
E 25 571 2
E 26 574 2
E 27 28 1
E 27 528 7
E 27 532 2
E 27 550 21
E 28 29 14
E 28 534 2
E 28 552 21
E 29 30 1
E 29 544 2
E 29 571 21
E 30 546 2
E 30 553 7
E 30 574 21
E 31 32 1
E 31 35 21
E 31 506 22
E 31 524 13
E 32 33 14
E 32 36 21
E 32 526 13
E 33 34 1
E 33 37 21
E 33 538 13
E 34 38 21
E 34 539 13
E 35 36 1
E 35 480 104
E 35 504 7
E 36 37 14
E 36 482 104
E 37 38 1
E 37 484 104
E 38 486 104
E 39 40 1
E 39 43 21
E 39 480 4
E 40 41 14
E 40 44 21
E 40 482 4
E 41 42 1
E 41 45 21
E 41 484 4
E 42 46 21
E 42 486 4
E 43 44 1
E 43 47 21
E 43 471 23
E 44 45 14
E 44 48 21
E 45 46 1
E 45 49 21
E 46 50 21
E 47 48 1
E 47 51 21
E 47 470 7
E 48 49 14
E 48 52 21
E 49 50 1
E 49 53 21
E 50 54 21
E 51 52 1
E 51 462 18
E 52 53 14
E 52 463 18
E 53 54 1
E 53 464 18
E 54 466 18
E 55 56 1
E 55 437 8
E 55 439 7
E 55 450 5
E 56 57 14
E 56 440 8
E 56 451 5
E 57 58 1
E 57 452 8
E 57 460 5
E 58 453 8
E 58 461 5
E 59 60 1
E 59 63 23
E 59 396 7
E 59 412 3
E 60 61 14
E 60 64 23
E 60 413 3
E 61 62 1
E 61 65 23
E 61 426 3
E 62 66 23
E 62 427 3
E 63 64 1
E 63 361 7
E 64 65 14
E 65 66 1
E 67 68 1
E 67 516 30
E 67 535 4
E 68 69 14
E 68 536 4
E 69 70 1
E 69 547 4
E 70 548 4
E 71 72 1
E 71 419 122
E 71 474 15
E 71 499 102
E 72 73 14
E 72 500 102
E 73 74 1
E 73 469 46
E 73 503 104
E 74 470 46
E 74 480 7
E 74 504 104
E 75 76 1
E 75 415 8
E 75 416 7
E 75 429 8
E 76 77 14
E 76 417 8
E 76 432 8
E 77 78 1
E 77 428 8
E 77 436 8
E 78 430 8
E 78 437 7
E 78 439 8
E 79 80 1
E 79 365 7
E 79 375 3
E 79 415 28
E 80 81 14
E 80 377 3
E 80 417 28
E 81 82 1
E 81 393 3
E 81 428 28
E 82 396 3
E 82 412 7
E 82 430 28
E 83 84 1
E 83 87 21
E 84 85 14
E 84 88 21
E 85 86 1
E 85 89 21
E 86 90 21
E 86 448 7
E 87 88 1
E 87 395 13
E 88 89 14
E 88 398 13
E 89 90 1
E 89 414 13
E 90 416 13
E 90 429 12
E 90 446 22
E 91 92 1
E 91 346 28
E 91 395 8
E 92 93 14
E 92 347 28
E 92 398 8
E 93 94 1
E 93 364 28
E 93 414 8
E 94 365 28
E 94 415 7
E 94 416 8
E 95 96 1
E 95 319 19
E 95 346 7
E 96 97 14
E 96 321 19
E 96 347 7
E 97 98 1
E 97 327 19
E 97 364 7
E 98 329 19
E 98 365 7
E 98 375 11
E 98 386 22
E 99 100 1
E 99 103 23
E 99 319 4
E 100 101 14
E 100 104 23
E 100 321 4
E 101 102 1
E 101 105 23
E 101 327 4
E 102 106 23
E 102 329 4
E 103 104 1
E 104 105 14
E 105 106 1
E 107 108 1
E 107 493 13
E 107 496 7
E 107 508 37
E 108 109 14
E 108 494 13
E 108 510 37
E 109 110 1
E 109 497 13
E 109 514 37
E 110 498 13
E 110 511 30
E 110 516 37
E 111 112 1
E 112 113 14
E 113 114 1
E 114 319 7
E 115 116 1
E 115 686 7
E 115 687 2
E 116 117 14
E 116 688 2
E 117 118 1
E 117 689 2
E 118 690 2
E 119 120 1
E 119 676 7
E 119 677 2
E 119 687 21
E 120 121 14
E 120 678 2
E 120 688 21
E 121 122 1
E 121 683 2
E 121 689 21
E 122 684 2
E 122 690 21
E 123 124 1
E 123 142 7
E 123 633 21
E 123 677 21
E 124 125 14
E 124 634 21
E 124 678 21
E 125 126 1
E 125 659 21
E 125 683 21
E 126 662 21
E 126 684 21
E 127 128 1
E 127 556 44
E 127 620 7
E 127 633 2
E 128 129 14
E 128 559 44
E 128 634 2
E 129 130 1
E 129 585 44
E 129 659 2
E 130 588 44
E 130 662 2
E 131 132 1
E 131 663 21
E 131 679 2
E 132 133 14
E 132 664 21
E 132 680 2
E 133 134 1
E 133 674 21
E 133 685 2
E 134 676 21
E 134 686 2
E 134 687 7
E 135 136 1
E 135 139 21
E 135 648 7
E 135 663 2
E 136 137 14
E 136 140 21
E 136 664 2
E 137 138 1
E 137 141 21
E 137 674 2
E 138 142 21
E 138 676 2
E 138 677 7
E 139 140 1
E 139 143 21
E 139 619 7
E 140 141 14
E 140 144 21
E 141 142 1
E 141 145 21
E 142 146 21
E 143 144 1
E 143 587 7
E 143 593 2
E 144 145 14
E 144 596 2
E 145 146 1
E 145 612 2
E 146 620 2
E 146 633 7
E 147 148 1
E 147 628 25
E 147 655 7
E 148 149 14
E 148 630 25
E 149 150 1
E 149 647 25
E 150 648 25
E 150 679 7
E 151 152 1
E 151 479 129
E 151 515 7
E 151 555 46
E 152 153 14
E 152 481 129
E 152 558 46
E 153 154 1
E 153 483 129
E 153 584 46
E 154 485 129
E 154 556 30
E 154 587 46
E 154 593 51
E 155 156 1
E 155 473 7
E 155 475 2
E 156 157 14
E 156 476 2
E 157 158 1
E 157 477 2
E 158 478 2
E 158 499 99
E 159 160 1
E 159 163 21
E 159 186 7
E 159 631 46
E 160 161 14
E 160 164 21
E 160 632 46
E 161 162 1
E 161 165 21
E 161 651 46
E 162 166 21
E 162 592 7
E 162 655 46
E 163 164 1
E 163 507 46
E 164 165 14
E 164 509 46
E 165 166 1
E 165 513 46
E 166 515 46
E 166 555 7
E 167 168 1
E 167 467 2
E 167 507 163
E 168 169 14
E 168 468 2
E 168 509 163
E 169 170 1
E 169 472 2
E 169 513 163
E 170 473 2
E 170 475 7
E 170 515 163
E 171 172 1
E 171 431 26
E 171 445 7
E 171 456 13
E 172 173 14
E 172 433 26
E 172 457 13
E 173 174 1
E 173 438 26
E 173 472 48
E 174 442 26
E 174 473 48
E 175 176 1
E 175 404 7
E 175 409 3
E 175 431 20
E 176 177 14
E 176 411 3
E 176 433 20
E 177 178 1
E 177 423 3
E 177 438 20
E 178 425 3
E 178 442 20
E 179 180 1
E 179 373 7
E 179 402 15
E 180 181 14
E 180 405 15
E 181 182 1
E 181 418 15
E 182 419 15
E 182 474 122
E 183 184 1
E 183 591 46
E 184 185 14
E 184 594 46
E 185 186 1
E 185 610 46
E 186 618 46
E 187 188 1
E 187 191 23
E 187 424 7
E 187 434 3
E 188 189 14
E 188 192 23
E 188 435 3
E 189 190 1
E 189 193 23
E 189 444 3
E 190 194 23
E 190 445 3
E 191 192 1
E 191 381 22
E 191 406 2
E 192 193 14
E 192 407 2
E 193 194 1
E 193 420 2
E 194 421 2
E 194 431 7
E 195 196 1
E 195 363 7
E 195 374 2
E 195 383 3
E 196 197 14
E 196 376 2
E 196 385 3
E 197 198 1
E 197 392 2
E 197 401 3
E 198 394 2
E 198 404 3
E 198 409 7
E 199 200 1
E 199 339 3
E 200 201 14
E 200 342 3
E 201 202 1
E 201 357 3
E 202 360 3
E 203 204 1
E 203 671 7
E 203 673 1
E 204 205 14
E 204 675 1
E 205 206 1
E 205 681 1
E 206 682 1
E 207 208 1
E 207 645 7
E 207 650 1
E 207 673 22
E 208 209 14
E 208 654 1
E 208 675 22
E 209 210 1
E 209 666 1
E 209 681 22
E 210 669 1
E 210 682 22
E 211 212 1
E 211 606 7
E 211 609 1
E 211 650 22
E 212 213 14
E 212 617 1
E 212 654 22
E 213 214 1
E 213 637 1
E 213 666 22
E 214 642 1
E 214 669 22
E 215 216 1
E 215 359 7
E 215 366 3
E 215 379 2
E 216 217 14
E 216 370 3
E 216 381 2
E 217 218 1
E 217 387 3
E 217 422 25
E 218 390 3
E 218 406 7
E 218 424 25
E 219 220 1
E 219 328 7
E 219 336 1
E 219 344 2
E 220 221 14
E 220 338 1
E 220 345 2
E 221 222 1
E 221 354 1
E 221 362 2
E 222 356 1
E 222 363 2
E 222 374 7
E 223 224 1
E 223 323 5
E 224 225 14
E 224 325 5
E 225 226 1
E 225 332 5
E 226 335 5
E 226 339 7
E 227 228 1
E 227 657 21
E 227 667 7
E 228 229 14
E 228 661 21
E 229 230 1
E 229 668 22
E 230 671 22
E 231 232 1
E 231 623 21
E 231 640 7
E 231 653 1
E 232 233 14
E 232 626 21
E 232 658 1
E 233 234 1
E 233 641 22
E 233 668 1
E 234 645 22
E 234 671 1
E 234 673 7
E 235 236 1
E 235 565 30
E 235 582 21
E 235 616 1
E 236 237 14
E 236 586 21
E 236 624 1
E 237 238 1
E 237 604 22
E 237 641 1
E 238 606 22
E 238 645 1
E 238 650 7
E 239 240 1
E 239 243 351
E 239 580 1
E 240 241 14
E 240 583 1
E 241 242 1
E 241 604 1
E 242 606 1
E 242 609 7
E 243 244 1
E 243 382 13
E 244 245 14
E 244 384 13
E 245 246 1
E 245 400 13
E 246 403 13
E 246 441 30
E 247 248 1
E 247 315 30
E 247 322 15
E 247 337 3
E 248 249 14
E 248 324 15
E 248 341 3
E 249 250 1
E 249 330 15
E 249 355 3
E 250 333 15
E 250 359 3
E 250 366 7
E 251 252 1
E 251 309 30
E 251 312 17
E 251 318 1
E 252 253 14
E 252 313 17
E 252 320 1
E 253 254 1
E 253 316 17
E 253 326 1
E 254 317 17
E 254 328 1
E 254 336 7
E 255 256 1
E 255 656 2
E 256 257 14
E 256 660 2
E 257 258 1
E 257 670 2
E 258 672 2
E 259 260 1
E 259 607 2
E 260 261 14
E 260 613 2
E 261 262 1
E 261 635 2
E 262 638 2
E 262 656 7
E 263 264 1
E 263 568 7
E 263 578 1
E 263 599 12
E 264 265 14
E 264 581 1
E 264 600 12
E 265 266 1
E 265 602 1
E 265 627 12
E 266 605 1
E 266 621 7
E 266 629 12
E 267 268 1
E 267 531 21
E 267 542 7
E 267 549 2
E 268 269 14
E 268 533 21
E 268 551 2
E 269 270 1
E 269 562 2
E 269 570 2
E 270 565 2
E 270 573 2
E 270 623 30
E 271 272 1
E 271 531 2
E 272 273 14
E 272 533 2
E 273 274 1
E 273 543 2
E 274 545 2
E 274 582 30
E 275 276 1
E 275 310 31
E 276 277 14
E 276 311 31
E 277 278 1
E 277 314 31
E 278 315 31
E 278 382 30
E 279 280 1
E 279 298 7
E 279 306 6
E 279 310 15
E 280 281 14
E 280 307 6
E 280 311 15
E 281 282 1
E 281 308 6
E 281 314 15
E 282 309 6
E 282 315 15
E 282 322 30
E 283 284 1
E 283 302 7
E 283 306 17
E 284 285 14
E 284 307 17
E 285 286 1
E 285 308 17
E 286 309 17
E 286 312 30
E 287 288 1
E 287 529 2
E 288 530 2
E 288 540 8
E 289 290 1
E 289 540 6
E 289 541 2
E 289 557 15
E 290 542 2
E 290 549 7
E 290 560 15
E 291 292 1
E 291 529 21
E 292 293 14
E 292 530 21
E 293 294 1
E 293 297 414
E 293 541 21
E 294 531 7
E 294 542 21
E 295 296 1
E 295 299 23
E 296 297 14
E 296 300 23
E 297 298 1
E 297 301 23
E 298 302 23
E 299 300 1
E 300 301 14
E 301 302 1
E 303 304 1
E 303 561 6
E 304 305 1
E 304 563 6
E 305 566 6
E 306 307 1
E 307 308 14
E 308 309 1
E 310 311 1
E 311 314 14
E 312 313 1
E 313 316 14
E 314 315 1
E 316 317 1
E 317 323 7
E 318 320 1
E 318 322 5
E 319 321 1
E 320 324 5
E 320 326 14
E 321 327 14
E 322 324 1
E 323 325 1
E 323 331 15
E 324 330 14
E 325 332 14
E 325 334 15
E 326 328 1
E 326 330 5
E 327 329 1
E 328 333 5
E 329 340 7
E 330 333 1
E 331 334 1
E 331 336 2
E 332 335 1
E 332 352 15
E 333 348 7
E 334 338 2
E 334 352 14
E 335 349 7
E 335 353 15
E 336 338 1
E 337 341 1
E 337 378 25
E 338 354 14
E 339 342 1
E 339 349 5
E 340 343 1
E 340 375 23
E 341 355 14
E 341 380 25
E 342 351 5
E 342 357 14
E 343 358 14
E 343 377 23
E 344 345 1
E 344 348 3
E 345 350 3
E 345 362 14
E 346 347 1
E 347 364 14
E 348 350 1
E 348 366 15
E 349 351 1
E 349 368 15
E 350 367 14
E 350 370 15
E 351 369 14
E 351 372 15
E 352 353 1
E 352 354 2
E 353 356 2
E 353 368 7
E 354 356 1
E 355 359 1
E 355 397 25
E 357 360 1
E 357 369 5
E 358 361 1
E 358 386 19
E 359 399 25
E 360 373 5
E 361 389 19
E 362 363 1
E 362 367 3
E 363 371 3
E 364 365 1
E 366 370 1
E 367 371 1
E 367 387 15
E 368 372 1
E 368 374 3
E 369 373 1
E 369 388 15
E 370 387 14
E 371 383 7
E 371 390 15
E 372 376 3
E 372 388 14
E 373 391 15
E 374 376 1
E 375 377 1
E 376 392 14
E 377 393 14
E 378 380 1
E 378 382 3
E 379 381 1
E 379 408 23
E 380 384 3
E 380 397 14
E 381 410 23
E 382 384 1
E 383 385 1
E 383 406 18
E 384 400 14
E 385 401 14
E 385 407 18
E 386 389 1
E 386 393 4
E 387 390 1
E 388 391 1
E 388 392 3
E 389 396 4
E 391 394 3
E 391 402 7
E 392 394 1
E 393 396 1
E 395 398 1
E 397 399 1
E 397 400 3
E 398 414 14
E 399 403 3
E 399 408 7
E 400 403 1
E 401 404 1
E 401 420 18
E 402 405 1
E 402 409 5
E 403 434 30
E 404 421 18
E 405 411 5
E 405 418 14
E 406 407 1
E 407 420 14
E 408 410 1
E 409 411 1
E 410 422 14
E 411 423 14
E 412 413 1
E 412 437 36
E 413 426 14
E 413 440 36
E 414 416 1
E 415 417 1
E 417 428 14
E 418 419 1
E 418 423 5
E 419 425 5
E 420 421 1
E 422 424 1
E 423 425 1
E 426 427 1
E 426 452 36
E 427 453 36
E 428 430 1
E 429 432 1
E 429 448 26
E 431 433 1
E 432 436 14
E 432 449 26
E 433 438 14
E 434 435 1
E 434 441 13
E 435 443 13
E 435 444 14
E 436 439 1
E 436 446 5
E 437 440 1
E 438 442 1
E 439 447 5
E 440 452 14
E 441 443 1
E 443 454 14
E 444 445 1
E 444 454 13
E 445 455 13
E 446 447 1
E 446 458 21
E 447 450 7
E 447 459 21
E 448 449 1
E 448 465 39
E 449 458 14
E 450 451 1
E 450 462 21
E 451 460 14
E 451 463 21
E 452 453 1
E 454 455 1
E 455 456 7
E 456 457 1
E 456 467 35
E 457 468 35
E 458 459 1
E 458 469 39
E 459 462 7
E 459 470 39
E 460 461 1
E 460 464 21
E 461 466 21
E 462 463 1
E 463 464 14
E 464 466 1
E 465 469 15
E 465 471 21
E 467 468 1
E 468 472 14
E 469 470 1
E 471 474 10
E 472 473 1
E 475 476 1
E 475 479 34
E 476 477 14
E 476 481 34
E 477 478 1
E 477 483 34
E 478 485 34
E 478 487 53
E 479 481 1
E 480 482 1
E 481 483 14
E 482 484 14
E 483 485 1
E 484 486 1
E 485 489 30
E 487 488 1
E 487 493 21
E 488 491 14
E 488 494 21
E 489 490 1
E 489 556 129
E 490 495 14
E 490 559 129
E 491 492 1
E 491 497 21
E 492 498 21
E 492 501 30
E 493 494 1
E 494 497 14
E 495 496 1
E 495 585 129
E 496 588 129
E 497 498 1
E 498 505 30
E 499 500 1
E 499 501 2
E 500 502 2
E 501 502 1
E 501 505 21
E 502 503 14
E 502 506 21
E 503 504 1
E 503 521 34
E 504 522 34
E 505 506 1
E 505 511 13
E 506 512 13
E 507 509 1
E 508 510 1
E 508 588 99
E 509 513 14
E 510 514 14
E 511 512 1
E 511 517 8
E 512 518 8
E 512 521 14
E 513 515 1
E 514 516 1
E 517 518 1
E 517 519 2
E 518 520 2
E 518 523 14
E 519 520 1
E 519 535 23
E 520 527 14
E 520 536 23
E 521 522 1
E 521 523 8
E 522 524 7
E 522 525 8
E 523 525 1
E 523 527 2
E 524 526 1
E 524 532 8
E 525 528 2
E 525 532 7
E 526 534 8
E 526 538 14
E 527 528 1
E 527 547 23
E 528 548 23
E 529 530 1
E 530 537 8
E 531 533 1
E 532 534 1
E 533 543 14
E 534 544 14
E 535 536 1
E 536 547 14
E 537 540 2
E 537 541 6
E 538 539 1
E 538 544 8
E 539 546 8
E 541 542 1
E 543 545 1
E 543 562 19
E 544 546 1
E 545 565 19
E 547 548 1
E 549 551 1
E 549 569 15
E 550 552 1
E 551 570 14
E 551 572 15
E 552 571 14
E 553 554 1
E 554 575 14
E 555 558 1
E 555 592 21
E 556 559 1
E 557 560 1
E 557 561 4
E 558 584 14
E 558 595 21
E 559 585 14
E 560 564 4
E 560 569 7
E 561 563 1
E 561 564 1
E 562 565 1
E 563 566 1
E 563 567 1
E 564 567 1
E 564 577 7
E 566 568 1
E 566 589 12
E 567 568 1
E 567 578 7
E 568 590 12
E 569 572 1
E 569 577 4
E 570 573 1
E 570 597 15
E 571 574 1
E 572 579 4
E 572 597 14
E 573 598 15
E 575 576 1
E 577 578 1
E 577 579 1
E 578 581 1
E 579 581 1
E 579 601 14
E 580 582 1
E 580 583 1
E 581 602 14
E 582 586 1
E 583 586 1
E 583 604 14
E 584 587 1
E 584 611 21
E 585 588 1
E 587 619 21
E 589 590 1
E 590 599 7
E 591 594 1
E 591 642 45
E 592 595 1
E 592 628 21
E 593 596 1
E 594 610 14
E 595 611 14
E 595 630 21
E 596 612 14
E 597 598 1
E 597 601 4
E 598 603 4
E 599 600 1
E 599 607 9
E 600 613 9
E 600 627 14
E 601 602 1
E 601 603 1
E 602 605 1
E 603 605 1
E 603 608 7
E 604 606 1
E 605 614 7
E 607 613 1
E 608 614 1
E 608 615 1
E 609 617 1
E 610 618 1
E 611 619 1
E 611 647 21
E 612 620 1
E 613 635 14
E 614 621 1
E 614 622 1
E 615 622 1
E 615 636 14
E 616 623 1
E 616 624 1
E 617 637 14
E 618 631 7
E 619 648 21
E 621 625 1
E 621 649 21
E 622 625 1
E 622 639 14
E 623 626 1
E 624 626 1
E 624 641 14
E 625 643 14
E 625 652 21
E 627 629 1
E 627 635 9
E 628 630 1
E 629 638 9
E 630 647 14
E 631 632 1
E 632 651 14
E 633 634 1
E 634 659 14
E 635 638 1
E 636 639 1
E 636 640 1
E 637 642 1
E 638 649 7
E 639 643 1
E 639 644 1
E 640 644 1
E 641 645 1
E 643 646 1
E 643 665 21
E 644 646 1
E 644 653 7
E 646 657 7
E 646 667 21
E 647 648 1
E 649 652 1
E 649 656 2
E 650 654 1
E 651 655 1
E 652 660 2
E 652 665 14
E 653 657 1
E 653 658 1
E 654 666 14
E 656 660 1
E 657 661 1
E 658 661 1
E 658 668 14
E 659 662 1
E 660 670 14
E 663 664 1
E 664 674 14
E 665 667 1
E 665 670 2
E 666 669 1
E 667 672 2
E 668 671 1
E 670 672 1
E 673 675 1
E 674 676 1
E 675 681 14
E 677 678 1
E 678 683 14
E 679 680 1
E 680 685 14
E 681 682 1
E 683 684 1
E 685 686 1
E 687 688 1
E 688 689 14
E 689 690 1
E 1 691 100000
E 2 691 100000
E 3 691 100000
E 4 691 100000
E 5 692 100000
E 6 692 100000
E 7 693 100000
E 8 693 100000
E 9 693 100000
E 10 693 100000
E 11 694 100000
E 12 694 100000
E 13 694 100000
E 14 694 100000
E 15 695 100000
E 16 695 100000
E 17 695 100000
E 18 695 100000
E 19 696 100000
E 20 696 100000
E 21 696 100000
E 22 696 100000
E 23 697 100000
E 24 697 100000
E 25 697 100000
E 26 697 100000
E 27 698 100000
E 28 698 100000
E 29 698 100000
E 30 698 100000
E 31 699 100000
E 32 699 100000
E 33 699 100000
E 34 699 100000
E 35 700 100000
E 36 700 100000
E 37 700 100000
E 38 700 100000
E 39 701 100000
E 40 701 100000
E 41 701 100000
E 42 701 100000
E 43 702 100000
E 44 702 100000
E 45 702 100000
E 46 702 100000
E 47 703 100000
E 48 703 100000
E 49 703 100000
E 50 703 100000
E 51 704 100000
E 52 704 100000
E 53 704 100000
E 54 704 100000
E 55 705 100000
E 56 705 100000
E 57 705 100000
E 58 705 100000
E 59 706 100000
E 60 706 100000
E 61 706 100000
E 62 706 100000
E 63 707 100000
E 64 707 100000
E 65 707 100000
E 66 707 100000
E 67 708 100000
E 68 708 100000
E 69 708 100000
E 70 708 100000
E 71 709 100000
E 72 709 100000
E 73 709 100000
E 74 709 100000
E 75 710 100000
E 76 710 100000
E 77 710 100000
E 78 710 100000
E 79 711 100000
E 80 711 100000
E 81 711 100000
E 82 711 100000
E 83 712 100000
E 84 712 100000
E 85 712 100000
E 86 712 100000
E 87 713 100000
E 88 713 100000
E 89 713 100000
E 90 713 100000
E 91 714 100000
E 92 714 100000
E 93 714 100000
E 94 714 100000
E 95 715 100000
E 96 715 100000
E 97 715 100000
E 98 715 100000
E 99 716 100000
E 100 716 100000
E 101 716 100000
E 102 716 100000
E 103 717 100000
E 104 717 100000
E 105 717 100000
E 106 717 100000
E 107 718 100000
E 108 718 100000
E 109 718 100000
E 110 718 100000
E 111 719 100000
E 112 719 100000
E 113 719 100000
E 114 719 100000
E 115 720 100000
E 116 720 100000
E 117 720 100000
E 118 720 100000
E 119 721 100000
E 120 721 100000
E 121 721 100000
E 122 721 100000
E 123 722 100000
E 124 722 100000
E 125 722 100000
E 126 722 100000
E 127 723 100000
E 128 723 100000
E 129 723 100000
E 130 723 100000
E 131 724 100000
E 132 724 100000
E 133 724 100000
E 134 724 100000
E 135 725 100000
E 136 725 100000
E 137 725 100000
E 138 725 100000
E 139 726 100000
E 140 726 100000
E 141 726 100000
E 142 726 100000
E 143 727 100000
E 144 727 100000
E 145 727 100000
E 146 727 100000
E 147 728 100000
E 148 728 100000
E 149 728 100000
E 150 728 100000
E 151 729 100000
E 152 729 100000
E 153 729 100000
E 154 729 100000
E 155 730 100000
E 156 730 100000
E 157 730 100000
E 158 730 100000
E 159 731 100000
E 160 731 100000
E 161 731 100000
E 162 731 100000
E 163 732 100000
E 164 732 100000
E 165 732 100000
E 166 732 100000
E 167 733 100000
E 168 733 100000
E 169 733 100000
E 170 733 100000
E 171 734 100000
E 172 734 100000
E 173 734 100000
E 174 734 100000
E 175 735 100000
E 176 735 100000
E 177 735 100000
E 178 735 100000
E 179 736 100000
E 180 736 100000
E 181 736 100000
E 182 736 100000
E 183 737 100000
E 184 737 100000
E 185 737 100000
E 186 737 100000
E 187 738 100000
E 188 738 100000
E 189 738 100000
E 190 738 100000
E 191 739 100000
E 192 739 100000
E 193 739 100000
E 194 739 100000
E 195 740 100000
E 196 740 100000
E 197 740 100000
E 198 740 100000
E 199 741 100000
E 200 741 100000
E 201 741 100000
E 202 741 100000
E 203 742 100000
E 204 742 100000
E 205 742 100000
E 206 742 100000
E 207 743 100000
E 208 743 100000
E 209 743 100000
E 210 743 100000
E 211 744 100000
E 212 744 100000
E 213 744 100000
E 214 744 100000
E 215 745 100000
E 216 745 100000
E 217 745 100000
E 218 745 100000
E 219 746 100000
E 220 746 100000
E 221 746 100000
E 222 746 100000
E 223 747 100000
E 224 747 100000
E 225 747 100000
E 226 747 100000
E 227 748 100000
E 228 748 100000
E 229 748 100000
E 230 748 100000
E 231 749 100000
E 232 749 100000
E 233 749 100000
E 234 749 100000
E 235 750 100000
E 236 750 100000
E 237 750 100000
E 238 750 100000
E 239 751 100000
E 240 751 100000
E 241 751 100000
E 242 751 100000
E 243 752 100000
E 244 752 100000
E 245 752 100000
E 246 752 100000
E 247 753 100000
E 248 753 100000
E 249 753 100000
E 250 753 100000
E 251 754 100000
E 252 754 100000
E 253 754 100000
E 254 754 100000
E 255 755 100000
E 256 755 100000
E 257 755 100000
E 258 755 100000
E 259 756 100000
E 260 756 100000
E 261 756 100000
E 262 756 100000
E 263 757 100000
E 264 757 100000
E 265 757 100000
E 266 757 100000
E 267 758 100000
E 268 758 100000
E 269 758 100000
E 270 758 100000
E 271 759 100000
E 272 759 100000
E 273 759 100000
E 274 759 100000
E 275 760 100000
E 276 760 100000
E 277 760 100000
E 278 760 100000
E 279 761 100000
E 280 761 100000
E 281 761 100000
E 282 761 100000
E 283 762 100000
E 284 762 100000
E 285 762 100000
E 286 762 100000
E 287 763 100000
E 288 763 100000
E 289 763 100000
E 290 763 100000
E 291 764 100000
E 292 764 100000
E 293 764 100000
E 294 764 100000
E 295 765 100000
E 296 765 100000
E 297 765 100000
E 298 765 100000
E 299 766 100000
E 300 766 100000
E 301 766 100000
E 302 766 100000
E 303 692 100000
E 304 692 100000
E 305 692 100000
END 

SECTION Terminals 
Terminals 76
TP 691 729
TP 692 730
TP 693 731
TP 694 732
TP 695 733
TP 696 734
TP 697 735
TP 698 736
TP 699 737
TP 700 738
TP 701 739
TP 702 740
TP 703 741
TP 704 742
TP 705 743
TP 706 744
TP 707 745
TP 708 746
TP 709 747
TP 710 748
TP 711 749
TP 712 750
TP 713 751
TP 714 752
TP 715 753
TP 716 754
TP 717 755
TP 718 756
TP 719 757
TP 720 758
TP 721 759
TP 722 760
TP 723 761
TP 724 762
TP 725 763
TP 726 764
TP 727 765
TP 728 766
END 
